Route #1: 1 7 11 42 57 53 14 62 25 17 10 1
Route #2: 1 54 4 31 15 28 8 41 37 45 22 36 27 44 1
Route #3: 1 30 26 46 16 12 58 1
Route #4: 1 34 49 63 1
Route #5: 1 35 5 55 6 59 47 1
Route #6: 1 43 21 52 20 38 24 1
Route #7: 1 39 19 23 13 29 2 1
Route #8: 1 33 61 9 48 64 3 56 40 32 60 1
Route #9: 1 51 50 18 1
cost 1647
